
******************************************************************************
This program contains Ipopt, a library for large-scale nonlinear optimization.
 Ipopt is released as open source code under the Eclipse Public License (EPL).
         For more information visit http://projects.coin-or.org/Ipopt

This version of Ipopt was compiled from source code available at
    https://github.com/IDAES/Ipopt as part of the Institute for the Design of
    Advanced Energy Systems Process Systems Engineering Framework (IDAES PSE
    Framework) Copyright (c) 2018-2019. See https://github.com/IDAES/idaes-pse.

This version of Ipopt was compiled using HSL, a collection of Fortran codes
    for large-scale scientific computation.  All technical papers, sales and
    publicity material resulting from use of the HSL codes within IPOPT must
    contain the following acknowledgement:
        HSL, a collection of Fortran codes for large-scale scientific
        computation. See http://www.hsl.rl.ac.uk.
******************************************************************************

This is Ipopt version 3.13.2, running with linear solver ma27.

Number of nonzeros in equality constraint Jacobian...:     1210
Number of nonzeros in inequality constraint Jacobian.:        0
Number of nonzeros in Lagrangian Hessian.............:     1376

Total number of variables............................:      480
                     variables with only lower bounds:      128
                variables with lower and upper bounds:      288
                     variables with only upper bounds:        0
Total number of equality constraints.................:      477
Total number of inequality constraints...............:        0
        inequality constraints with only lower bounds:        0
   inequality constraints with lower and upper bounds:        0
        inequality constraints with only upper bounds:        0

iter    objective    inf_pr   inf_du lg(mu)  ||d||  lg(rg) alpha_du alpha_pr  ls
   0  0.0000000e+00 1.97e+00 6.57e-14  -1.0 0.00e+00    -  0.00e+00 0.00e+00   0
   1  6.1143862e-01 2.01e+00 1.15e+05  -1.0 2.72e+06    -  5.42e-02 2.36e-02f  4
   2  7.0741134e-01 2.01e+00 1.14e+05  -1.0 4.21e+06    -  3.20e-02 2.48e-03h  6
   3  9.8846175e-01 2.00e+00 1.11e+05  -1.0 5.35e+06    -  2.72e-02 4.55e-03h  5
   4  1.9638849e+00 1.98e+00 1.07e+05  -1.0 7.45e+06    -  2.31e-02 6.88e-03h  4
   5  1.1595763e+01 1.88e+00 2.38e+05  -1.0 1.13e+07    -  3.02e-02 1.86e-02h  2
   6  3.5593607e+01 1.80e+00 4.87e+05  -1.0 2.32e+07    -  2.28e-02 1.23e-02h  1
   7  3.5941849e+01 1.80e+00 4.87e+05  -1.0 2.82e+07    -  2.51e-02 1.19e-04h  1
   8  4.0505459e+01 1.80e+00 6.02e+05  -1.0 5.50e+07    -  1.40e-02 1.39e-03h  1
   9  5.1181327e+01 1.79e+00 8.26e+05  -1.0 4.30e+07    -  1.12e-02 2.35e-03h  4
iter    objective    inf_pr   inf_du lg(mu)  ||d||  lg(rg) alpha_du alpha_pr  ls
  10  6.2695582e+01 1.78e+00 8.59e+05  -1.0 3.77e+07    -  1.32e-02 2.08e-03h  5
  11  8.1391214e+01 1.77e+00 8.50e+05  -1.0 4.06e+07    -  1.61e-02 2.87e-03h  5
  12  1.1237320e+02 1.75e+00 7.83e+05  -1.0 4.42e+07    -  2.12e-02 3.95e-03h  5
  13  1.6534767e+02 1.72e+00 6.80e+05  -1.0 4.88e+07    -  2.95e-02 5.41e-03h  5
  14  2.1038438e+02 1.70e+00 6.56e+05  -1.0 5.55e+07    -  3.47e-02 3.71e-03h  6
  15  2.7527812e+02 1.68e+00 6.43e+05  -1.0 6.11e+07    -  4.52e-02 4.41e-03h  6
  16  3.7179218e+02 1.66e+00 6.48e+05  -1.0 6.87e+07    -  4.78e-02 5.25e-03h  6
  17  5.1718951e+02 1.63e+00 6.85e+05  -1.0 7.88e+07    -  6.26e-02 6.11e-03h  6
  18  7.4253409e+02 1.60e+00 8.79e+05  -1.0 9.29e+07    -  7.20e-02 7.02e-03h  6
  19  4.8380928e+04 1.16e+02 1.45e+09  -1.0 1.13e+08    -  8.17e-02 2.51e-01w  1
iter    objective    inf_pr   inf_du lg(mu)  ||d||  lg(rg) alpha_du alpha_pr  ls
  20  4.5874610e+04 1.16e+02 1.44e+09  -1.0 1.41e+09    -  1.61e-03 1.00e-03w  1
  21  4.6803852e+04 1.15e+02 1.46e+09  -1.0 1.18e+09    -  3.09e-03 6.64e-03w  1
  22  1.0982942e+03 1.56e+00 1.52e+06  -1.0 5.74e+08  -4.0 8.17e-02 7.85e-03h  5
  23  1.6217297e+03 1.52e+00 2.55e+06  -1.0 1.42e+08    -  1.09e-01 7.85e-03h  6
  24  2.2417651e+03 1.49e+00 3.68e+06  -1.0 1.83e+08    -  1.19e-01 6.26e-03h  6
  25  3.6512539e+03 1.43e+00 7.95e+06  -1.0 2.32e+08    -  1.31e-01 9.36e-03h  5
  26  5.6111475e+03 1.39e+00 1.34e+07  -1.0 3.35e+08    -  3.18e-02 7.44e-03h  5
  27  1.0000627e+04 1.33e+00 2.94e+07  -1.0 4.73e+08    -  2.04e-01 9.40e-03h  4
  28  2.4411078e+04 1.21e+00 1.09e+08  -1.0 8.42e+08    -  1.95e-02 1.21e-02h  4
  29  1.8287280e+05 1.15e+00 9.71e+08  -1.0 1.90e+09    -  1.61e-01 2.62e-02h  1
iter    objective    inf_pr   inf_du lg(mu)  ||d||  lg(rg) alpha_du alpha_pr  ls
  30  5.7143257e+03 3.53e+00 1.07e+09  -1.0 1.12e+10    -  1.42e-01 6.66e-03f  1
  31  1.9997245e+04 3.53e+00 1.01e+09  -1.0 4.80e+08    -  9.09e-02 2.26e-02h  4
  32  6.3101358e+05 3.47e+00 5.51e+09  -1.0 1.97e+09    -  4.77e-03 2.57e-02H  1
  33  3.8316574e+05 3.45e+00 6.19e+09  -1.0 4.44e+09    -  3.31e-03 7.80e-03f  3
  34  2.8067613e+05 3.42e+00 6.43e+09  -1.0 2.04e+09    -  2.90e-01 7.03e-03f  3
  35  2.2173648e+05 3.41e+00 6.46e+09  -1.0 3.39e+09    -  1.50e-02 3.94e-03f  2
  36  7.0121633e+04 3.36e+00 9.48e+09  -1.0 2.54e+09    -  2.58e-02 1.62e-02f  2
  37  6.1151982e+04 3.35e+00 9.36e+09  -1.0 6.24e+08    -  5.39e-01 4.16e-03f  4
  38  2.4459489e+04 3.80e+00 2.43e+11  -1.0 7.30e+08    -  1.66e-01 2.63e-02f  1
  39  5.1750865e+02 4.29e+00 2.35e+11  -1.0 9.40e+08    -  1.52e-01 2.94e-02f  1
iter    objective    inf_pr   inf_du lg(mu)  ||d||  lg(rg) alpha_du alpha_pr  ls
  40  5.4605990e+02 4.26e+00 2.34e+11  -1.0 2.68e+07    -  1.55e-01 6.77e-03h  4
  41  5.9671656e+02 4.23e+00 2.32e+11  -1.0 3.51e+07    -  1.26e-01 7.97e-03h  4
  42  6.5605162e+02 4.19e+00 2.30e+11  -1.0 3.77e+07    -  4.13e-03 7.89e-03h  4
  43r 6.5605162e+02 4.19e+00 1.00e+03   0.6 0.00e+00    -  0.00e+00 3.66e-07R  5
  44r 6.5605226e+02 3.04e+00 9.93e+02   0.6 5.25e+03    -  3.98e-02 3.76e-03f  1
  45  6.5736085e+02 3.04e+00 3.66e+03  -1.0 1.18e+07    -  8.04e-06 5.24e-04h  7
  46  6.5765952e+02 3.04e+00 3.91e+03  -1.0 6.04e+06    -  6.36e-07 2.50e-04f  7
  47  6.5787583e+02 3.04e+00 4.05e+03  -1.0 4.84e+06    -  4.71e-04 2.30e-04h  7
  48  6.5808014e+02 3.04e+00 4.17e+03  -1.0 4.62e+06    -  7.21e-02 2.26e-04h  7
  49  6.5853273e+02 3.03e+00 4.42e+03  -1.0 8.15e+06    -  1.02e-03 2.63e-04h  7
iter    objective    inf_pr   inf_du lg(mu)  ||d||  lg(rg) alpha_du alpha_pr  ls
  50  6.5898534e+02 3.03e+00 4.66e+03  -1.0 8.27e+06    -  6.49e-02 2.58e-04h  7
  51  6.6052592e+02 3.03e+00 7.19e+03  -1.0 9.38e+06    -  1.86e-02 8.21e-04h  4
  52  6.6249036e+02 3.03e+00 1.06e+04  -1.0 1.29e+07    -  1.67e-02 7.55e-04h  4
  53  6.6673608e+02 3.03e+00 2.37e+04  -1.0 1.82e+07    -  1.62e-02 1.13e-03h  4
  54  6.7211504e+02 3.02e+00 3.62e+04  -1.0 3.00e+07    -  5.34e-03 8.43e-04h  6
  55  8.9531339e+02 3.02e+00 7.07e+06  -1.0 3.97e+07    -  8.26e-02 2.27e-02w  1
  56  8.7094158e+02 3.01e+00 7.05e+06  -1.0 4.87e+07    -  2.28e-02 2.00e-03w  1
  57  8.2165585e+02 3.00e+00 7.04e+06  -1.0 2.74e+08    -  6.98e-03 7.21e-04w  1
  58  6.7828433e+02 3.02e+00 4.59e+04  -1.0 2.15e+09    -  8.26e-02 7.11e-04h  5
  59  1.1747704e+03 2.98e+00 2.43e+05  -1.0 9.49e+07    -  3.66e-02 1.88e-02h  4
iter    objective    inf_pr   inf_du lg(mu)  ||d||  lg(rg) alpha_du alpha_pr  ls
  60  1.5608627e+03 2.97e+00 3.41e+05  -1.0 1.85e+08    -  2.81e-02 5.68e-03h  6
  61  2.0969672e+03 2.95e+00 4.99e+05  -1.0 2.64e+08    -  2.37e-02 4.64e-03h  6
  62  2.7434159e+03 2.94e+00 7.05e+05  -1.0 3.83e+08    -  2.06e-02 3.28e-03h  5
  63  2.8442522e+03 2.94e+00 7.10e+05  -1.0 4.75e+08    -  3.96e-02 3.77e-04h  6
  64  2.9025705e+03 2.94e+00 7.09e+05  -1.0 3.56e+08    -  1.46e-02 2.82e-04h  4
  65  2.9305163e+03 2.94e+00 7.08e+05  -1.0 2.82e+08    -  1.08e-02 1.67e-04h  4
  66  2.9711884e+03 2.94e+00 7.07e+05  -1.0 2.75e+08    -  9.78e-03 2.46e-04h  3
  67  3.0243675e+03 2.94e+00 7.07e+05  -1.0 2.68e+08    -  9.85e-03 3.25e-04h  2
  68  3.1233424e+03 2.94e+00 6.99e+05  -1.0 3.67e+08    -  1.35e-02 4.46e-04h  1
  69  3.3517328e+03 2.94e+00 7.49e+05  -1.0 6.74e+08    -  2.70e-02 5.59e-04h  4
iter    objective    inf_pr   inf_du lg(mu)  ||d||  lg(rg) alpha_du alpha_pr  ls
  70  4.0035203e+03 2.93e+00 1.18e+06  -1.0 8.89e+08    -  1.34e-01 1.13e-03h  5
  71  6.6481825e+03 2.92e+00 1.10e+07  -1.0 1.83e+09    -  6.15e-03 1.84e-03h  5
  72  3.4996629e+02 6.27e+00 5.47e+08  -1.0 1.72e+09    -  1.86e-02 8.24e-03f  1
  73  5.7930725e+02 6.28e+00 5.05e+08  -1.0 1.92e+07    -  7.11e-02 6.84e-02h  2
  74  6.4505678e+02 6.24e+00 5.02e+08  -1.0 4.50e+07    -  6.96e-02 6.28e-03h  4
  75  6.5012127e+02 6.24e+00 5.02e+08  -1.0 5.39e+07    -  1.39e-01 3.91e-04h  9
  76  6.5083640e+02 6.24e+00 5.02e+08  -1.0 5.51e+07    -  1.10e-01 5.39e-05h 13
  77  6.5108430e+02 6.24e+00 5.02e+08  -1.0 5.53e+07    -  1.78e-01 1.86e-05h 15
  78  3.3989267e+03 6.42e+00 8.16e+08  -1.0 5.55e+07    -  7.46e-02 1.07e-01h  3
  79  1.6412397e+03 6.38e+00 8.20e+08  -1.0 5.40e+08    -  6.51e-02 8.59e-03f  2
iter    objective    inf_pr   inf_du lg(mu)  ||d||  lg(rg) alpha_du alpha_pr  ls
  80  4.4866331e+03 6.30e+00 9.49e+08  -1.0 1.31e+08    -  3.75e-02 3.00e-02h  3
  81  4.0874241e+03 6.28e+00 9.49e+08  -1.0 6.22e+08    -  2.93e-02 3.45e-03f  3
  82  5.5345709e+03 6.27e+00 9.48e+08  -1.0 1.05e+09    -  7.22e-03 1.86e-03h  5
  83  1.9150910e+04 6.22e+00 1.26e+10  -1.0 1.18e+09    -  3.56e-02 1.28e-02w  1
  84  1.8270470e+04 6.24e+00 1.22e+10  -1.0 7.85e+08    -  2.06e-02 2.94e-02w  1
  85  4.4283368e+03 6.22e+00 1.19e+10  -1.0 7.19e+08    -  4.51e-02 2.12e-02w  1
  86  6.2025844e+03 6.26e+00 9.47e+08  -1.0 9.65e+08    -  3.56e-02 1.60e-03h  3
  87  5.3268210e+03 6.26e+00 9.47e+08  -1.0 3.67e+09    -  2.09e-02 3.40e-04f  4
  88  5.5994396e+03 6.25e+00 6.42e+09  -1.0 9.35e+08    -  1.23e-03 8.41e-04h  3
  89  4.9145192e+03 6.25e+00 6.31e+09  -1.0 8.52e+09    -  2.03e-05 1.40e-04f  4
iter    objective    inf_pr   inf_du lg(mu)  ||d||  lg(rg) alpha_du alpha_pr  ls
  90  5.2839564e+03 6.25e+00 6.00e+09  -1.0 7.03e+08    -  9.21e-06 1.16e-03h  5
  91  5.1295879e+03 6.24e+00 4.72e+09  -1.0 1.31e+09    -  6.16e-04 2.68e-04f  5
  92  5.0731520e+03 6.24e+00 4.69e+09  -1.0 1.25e+09    -  6.15e-04 7.17e-05f  7
  93  4.6359466e+03 6.24e+00 3.41e+09  -1.0 1.17e+09    -  6.98e-04 6.04e-04f  4
  94  4.6212122e+03 6.24e+00 3.41e+09  -1.0 6.81e+08    -  1.01e-02 2.85e-05f  9
  95  4.5916068e+03 6.24e+00 3.41e+09  -1.0 6.96e+08    -  1.83e-03 5.56e-05f  8
  96  2.4069639e+03 2.45e+01 2.75e+10  -1.0 6.70e+08    -  1.69e-03 7.33e-03f  1
  97  2.3079382e+03 2.44e+01 2.75e+10  -1.0 3.51e+08    -  6.81e-03 3.85e-03f  3
  98  2.4306436e+03 2.44e+01 2.75e+10  -1.0 5.58e+08    -  6.23e-03 5.91e-04h  7
  99  2.5465871e+03 2.44e+01 2.74e+10  -1.0 6.49e+08    -  8.15e-03 4.25e-04h  6
iter    objective    inf_pr   inf_du lg(mu)  ||d||  lg(rg) alpha_du alpha_pr  ls
 100  2.5528420e+03 2.44e+01 2.74e+10  -1.0 7.65e+08    -  9.68e-03 1.80e-05h 10
 101  2.6566683e+03 2.44e+01 2.74e+10  -1.0 8.06e+08    -  3.62e-03 2.78e-04h  7
 102  2.8434761e+03 2.44e+01 2.73e+10  -1.0 9.36e+08    -  9.05e-03 3.90e-04h  6
 103  2.9757564e+03 2.44e+01 2.73e+10  -1.0 1.62e+09    -  2.99e-03 1.34e-04h  7
 104  3.6185595e+03 2.44e+01 2.51e+10  -1.0 1.44e+09    -  1.04e-02 1.04e-03h  4
 105  3.4614968e+03 2.44e+01 1.66e+11  -1.0 7.06e+08    -  1.97e-02 3.11e-04f  2
 106  3.8482924e+03 2.44e+01 4.48e+11  -1.0 1.86e+09    -  2.03e-03 2.36e-04h  5
 107  1.7421145e+03 2.43e+01 1.19e+14  -1.0 1.74e+09    -  2.48e-02 2.33e-03f  1
 108  1.7587721e+03 2.43e+01 1.19e+14  -1.0 1.35e+08    -  2.07e-02 2.57e-04h  5
 109  1.7755965e+03 2.43e+01 1.19e+14  -1.0 1.32e+08    -  2.15e-02 2.64e-04h  5
iter    objective    inf_pr   inf_du lg(mu)  ||d||  lg(rg) alpha_du alpha_pr  ls
 110  1.7925791e+03 2.43e+01 1.19e+14  -1.0 1.29e+08    -  2.22e-02 2.71e-04h  5
 111  1.8097124e+03 2.43e+01 1.19e+14  -1.0 1.26e+08    -  2.44e-02 2.78e-04h  5
 112  1.8269902e+03 2.43e+01 1.19e+14  -1.0 1.24e+08    -  6.18e-02 2.86e-04h  5
 113  1.8444076e+03 2.43e+01 1.19e+14  -1.0 1.21e+08    -  4.42e-02 2.93e-04h  5
 114  1.8619604e+03 2.43e+01 1.19e+14  -1.0 1.18e+08    -  9.28e-02 3.01e-04h  5
 115  1.8796241e+03 2.43e+01 1.19e+14  -1.0 1.16e+08    -  3.69e-02 3.08e-04h  5
 116  1.8974047e+03 2.42e+01 1.19e+14  -1.0 1.13e+08    -  1.16e-01 3.15e-04h  5
 117  1.9154011e+03 2.42e+01 1.19e+14  -1.0 1.12e+08    -  3.55e-02 3.23e-04h  5
 118  2.2225584e+03 2.41e+01 1.17e+14  -1.0 1.10e+08    -  1.54e-01 5.30e-03w  1
 119  2.2806426e+03 2.41e+01 1.17e+14  -1.0 2.27e+08    -  3.41e-02 5.07e-04w  1
iter    objective    inf_pr   inf_du lg(mu)  ||d||  lg(rg) alpha_du alpha_pr  ls
 120  2.7317791e+03 1.08e+02 9.53e+16  -1.0 5.43e+08    -  2.54e-02 1.59e-03w  1
 121  1.9337150e+03 2.42e+01 1.18e+14  -1.0 6.36e-03  16.3 1.54e-01 3.31e-04h  4
 122  1.9533447e+03 2.42e+01 1.18e+14  -1.0 1.14e+08    -  2.11e-02 3.45e-04h  5
 123  1.9729362e+03 2.42e+01 1.18e+14  -1.0 1.11e+08    -  6.48e-02 3.51e-04h  5
 124  1.9925018e+03 2.42e+01 1.18e+14  -1.0 1.08e+08    -  2.74e-02 3.57e-04h  5
 125  2.0120534e+03 2.42e+01 1.18e+14  -1.0 1.05e+08    -  2.82e-01 3.64e-04h  5
 126  2.0316027e+03 2.42e+01 1.18e+14  -1.0 1.03e+08    -  2.09e-02 3.71e-04h  5
 127  2.0511609e+03 2.42e+01 1.18e+14  -1.0 1.00e+08    -  1.12e-01 3.78e-04h  5
 128  2.0705269e+03 2.42e+01 1.18e+14  -1.0 9.78e+07    -  2.48e-02 3.81e-04h  5
 129  2.0896183e+03 2.42e+01 1.18e+14  -1.0 9.55e+07    -  2.75e-01 3.82e-04h  5
iter    objective    inf_pr   inf_du lg(mu)  ||d||  lg(rg) alpha_du alpha_pr  ls
 130  2.1084046e+03 2.42e+01 1.18e+14  -1.0 9.33e+07    -  2.20e-02 3.82e-04h  5
 131  2.4160519e+03 2.40e+01 1.17e+14  -1.0 9.13e+07    -  8.62e-02 6.10e-03w  1
 132  2.4918242e+03 2.40e+01 1.16e+14  -1.0 5.41e+08    -  1.82e-02 2.70e-04w  1
 133  2.5678099e+03 2.40e+01 1.16e+14  -1.0 1.70e+08    -  5.26e-03 8.10e-04w  1
 134  2.1268322e+03 2.41e+01 1.18e+14  -1.0 6.80e+08    -  8.62e-02 3.81e-04h  4
 135  2.1448432e+03 2.41e+01 1.18e+14  -1.0 8.94e+07    -  2.83e-02 3.78e-04h  5
 136  2.1623758e+03 2.41e+01 1.18e+14  -1.0 8.75e+07    -  2.20e-01 3.73e-04h  5
 137  2.1964393e+03 2.41e+01 1.18e+14  -1.0 8.58e+07    -  2.35e-02 7.33e-04h  4
 138  2.2277625e+03 2.41e+01 1.18e+14  -1.0 8.28e+07    -  1.28e-01 6.91e-04h  4
 139  2.2557759e+03 2.41e+01 1.18e+14  -1.0 8.03e+07    -  2.70e-02 6.30e-04h  4
iter    objective    inf_pr   inf_du lg(mu)  ||d||  lg(rg) alpha_du alpha_pr  ls
 140  2.2801046e+03 2.41e+01 1.18e+14  -1.0 7.85e+07    -  2.36e-01 5.55e-04h  4
 141  2.2852406e+03 2.41e+01 1.18e+14  -1.0 7.74e+07    -  2.52e-02 1.18e-04h  6
 142  2.2877011e+03 2.41e+01 1.18e+14  -1.0 7.73e+07    -  1.14e-01 5.66e-05h  7
 143  2.4454831e+03 2.40e+01 1.17e+14  -1.0 7.72e+07    -  3.55e-03 3.55e-03s 14
 144r 2.4454831e+03 2.40e+01 1.00e+03   1.4 0.00e+00    -  0.00e+00 0.00e+00R  1
 145r 2.4454845e+03 1.91e+01 1.23e+03   1.4 3.65e+03    -  1.30e-02 8.37e-03f  1
 146  2.5136536e+03 1.84e+01 5.88e+06  -1.0 6.88e+06    -  4.05e-05 3.77e-02h  1
 147  2.5137631e+03 1.84e+01 5.88e+06  -1.0 4.81e+06    -  8.43e-02 5.22e-04h  1
 148  2.5137727e+03 1.84e+01 5.88e+06  -1.0 1.92e+07    -  7.66e-02 1.14e-04h  1
 149  2.6045094e+03 1.81e+01 1.60e+07  -1.0 2.02e+07    -  7.75e-02 1.40e-02h  2
iter    objective    inf_pr   inf_du lg(mu)  ||d||  lg(rg) alpha_du alpha_pr  ls
 150  2.3860453e+03 1.75e+01 1.30e+08  -1.0 1.64e+07    -  3.94e-02 3.34e-02f  1
 151  2.2941972e+03 1.73e+01 1.20e+08  -1.0 1.29e+07    -  2.61e-02 1.39e-02f  1
 152  2.2897683e+03 1.73e+01 1.20e+08  -1.0 1.45e+07    -  9.71e-03 5.98e-04f  1
 153  2.2672565e+03 1.72e+01 5.17e+15  -1.0 1.28e+07    -  8.96e-03 3.43e-03f  1
WARNING: Problem in step computation; switching to emergency mode.
 154r 2.2672565e+03 1.72e+01 1.00e+03   1.2 0.00e+00  19.8 0.00e+00 0.00e+00R  1
 155r 2.2672564e+03 1.46e+01 1.37e+03   1.2 6.17e+03    -  5.56e-03 1.66e-03f  1
 156r 2.2672564e+03 1.46e+01 9.99e+02   1.2 0.00e+00    -  0.00e+00 2.56e-07R  4
 157r 2.2672564e+03 9.85e+01 9.98e+02   1.2 7.25e+03    -  4.40e-03 1.41e-03f  1
 158r 2.2672564e+03 2.41e+01 2.43e+03   1.2 8.87e+03    -  2.46e-03 1.61e-03f  1
 159r 2.2672567e+03 8.48e+01 3.43e+03   1.2 8.31e+02    -  1.32e-02 4.44e-03f  1
iter    objective    inf_pr   inf_du lg(mu)  ||d||  lg(rg) alpha_du alpha_pr  ls
 160r 2.2672569e+03 8.45e+01 9.47e+09   1.2 5.42e+02    -  1.32e-02 3.86e-03f  1
 161r 2.2672569e+03 2.48e+01 5.86e+17   1.2 5.65e-01  10.4 6.10e-01 8.05e-02H  1
 162r 2.2672569e+03 1.45e+01 6.87e+18   1.2 2.39e-01  10.4 9.90e-01 3.33e-01h  1
WARNING: Problem in step computation; switching to emergency mode.
 163r 2.2672569e+03 1.45e+01 6.87e+18   1.2 2.39e-01  19.5 0.00e+00 0.00e+00R  1
 164r 2.2672569e+03 1.45e+01 3.02e+09   1.2 8.89e-17  20.0 9.90e-01 1.00e+00   0
 165r 2.2672569e+03 1.45e+01 1.26e+04   1.2 4.01e-16  19.5 9.90e-01 1.00e+00   0
 166r 2.2672569e+03 1.45e+01 8.26e+03   1.2 7.89e-16  19.0 1.00e+00 1.00e+00   0
 167r 2.2672569e+03 1.45e+01 7.91e+03   1.2 2.26e-15  18.5 1.00e+00 1.00e+00   0
 168r 2.2672569e+03 1.45e+01 3.51e+07   1.2 3.02e-11  18.1 1.00e+00 1.00e+00h  1
 169r 2.2672569e+03 1.45e+01 6.50e+08   1.2 1.68e-09  17.6 1.00e+00 1.00e+00h  1
iter    objective    inf_pr   inf_du lg(mu)  ||d||  lg(rg) alpha_du alpha_pr  ls
 170r 2.2672569e+03 1.45e+01 5.35e+09   1.2 4.14e-08  17.1 1.00e+00 1.00e+00h  1
 171r 2.2672569e+03 1.45e+01 5.22e+09   1.2 9.43e-07  16.6 1.00e+00 1.56e-02h  7
 172r 2.2672569e+03 1.45e+01 1.02e+10   1.2 7.11e-07  16.2 1.00e+00 1.00e+00h  1
 173r 2.2672569e+03 1.79e+01 2.54e+11   1.2 1.06e-04  15.7 1.00e+00 5.00e-01h  2
 174r 2.2672569e+03 1.45e+01 2.53e+11   1.2 4.69e-02  15.2 1.00e+00 1.24e-05h 16
 175r 2.2672569e+03 1.45e+01 2.53e+11   1.2 4.09e-05  14.7 0.00e+00 4.77e-07R 22
 176r 2.2672569e+03 1.45e+01 8.38e+03   1.2 4.73e-11  14.2 1.00e+00 1.00e+00f  1
 177r 2.2672569e+03 1.45e+01 5.58e+07   1.2 9.43e-07  13.8 1.00e+00 1.00e+00h  1
 178r 2.2672569e+03 1.01e+01 1.25e+14   1.2 2.80e-04  13.3 1.00e+00 1.00e+00f  1
 179r 2.2672569e+03 1.01e+01 9.99e+02   1.0 0.00e+00    -  0.00e+00 1.98e-09R  2
iter    objective    inf_pr   inf_du lg(mu)  ||d||  lg(rg) alpha_du alpha_pr  ls
 180r 2.2672570e+03 1.81e+01 4.35e+03   1.0 1.01e+04    -  1.68e-03 9.90e-04f  1
 181r 2.2672575e+03 7.65e+01 3.18e+11   1.0 1.74e+03    -  3.55e-02 7.16e-03f  1
WARNING: Problem in step computation; switching to emergency mode.
 182r 2.2672575e+03 7.65e+01 3.18e+11   1.0 1.74e+03  19.8 0.00e+00 0.00e+00R  1
WARNING: Problem in step computation; switching to emergency mode.
Restoration phase is called at point that is almost feasible,
  with constraint violation 0.000000e+00. Abort.
Restoration phase in the restoration phase failed.

Number of Iterations....: 182

                                   (scaled)                 (unscaled)
Objective...............:   2.2672575403823043e+03    2.2672575403823043e+03
Dual infeasibility......:   3.1827503203928406e+11    3.1827503203928406e+11
Constraint violation....:   7.6517000943949157e+01    7.6517000943949157e+01
Complementarity.........:   9.6272904970958149e+08    9.6272904970958149e+08
Overall NLP error.......:   3.1827503203928406e+11    3.1827503203928406e+11


Number of objective function evaluations             = 865
Number of objective gradient evaluations             = 159
Number of equality constraint evaluations            = 866
Number of inequality constraint evaluations          = 0
Number of equality constraint Jacobian evaluations   = 188
Number of inequality constraint Jacobian evaluations = 0
Number of Lagrangian Hessian evaluations             = 183
Total CPU secs in IPOPT (w/o function evaluations)   =      0.453
Total CPU secs in NLP function evaluations           =      9.575

EXIT: Restoration Failed!
